50 8
834 57
321 822
929 620
225 129
784 730
609 331
141 330
666 946
117 535
248 536
698 208
851 677
793 885
889 681
710 799
147 703
86 545
739 563
824 625
158 871
860 40
747 667
640 828
646 757
274 838
275 177
808 843
256 655
201 487
683 928
290 571
272 815
162 82
281 392
150 692
482 139
828 724
806 162
657 362
103 456
503 935
884 703
359 524
408 499
801 704
207 362
743 590
459 872
185 91
180 703
